p cnf 581 1971
c p weight -231 1 0
c p weight 231 -1 0
c p weight 235 6.12323399573676603586882014729198302312846062338790031898128063403419218957424163818359375E-17 0
c p weight -235 1 0
c p weight 236 1 0
c p weight -236 1 0
c p weight -233 1 0
c p weight 233 -1 0
c p weight -237 1 0
c p weight 237 -1 0
c p weight -239 1 0
c p weight 239 -1 0
c p weight -242 1 0
c p weight 242 -1 0
c p weight -245 1 0
c p weight 245 -1 0
c p weight -248 1 0
c p weight 248 -1 0
c p weight -251 1 0
c p weight 251 -1 0
c p weight -254 1 0
c p weight 254 -1 0
c p weight -257 1 0
c p weight 257 -1 0
c p weight -260 1 0
c p weight 260 -1 0
c p weight -263 1 0
c p weight 263 -1 0
c p weight -266 1 0
c p weight 266 -1 0
c p weight -269 1 0
c p weight 269 -1 0
c p weight -272 1 0
c p weight 272 -1 0
c p weight -275 1 0
c p weight 275 -1 0
c p weight -278 1 0
c p weight 278 -1 0
c p weight -281 1 0
c p weight 281 -1 0
c p weight -284 1 0
c p weight 284 -1 0
c p weight -287 1 0
c p weight 287 -1 0
c p weight -290 1 0
c p weight 290 -1 0
c p weight -293 1 0
c p weight 293 -1 0
c p weight -296 1 0
c p weight 296 -1 0
c p weight -299 1 0
c p weight 299 -1 0
c p weight -302 1 0
c p weight 302 -1 0
c p weight -305 1 0
c p weight 305 -1 0
c p weight -308 1 0
c p weight 308 -1 0
c p weight -311 1 0
c p weight 311 -1 0
c p weight -314 1 0
c p weight 314 -1 0
c p weight -317 1 0
c p weight 317 -1 0
c p weight -320 1 0
c p weight 320 -1 0
c p weight -323 1 0
c p weight 323 -1 0
c p weight -326 1 0
c p weight 326 -1 0
c p weight -329 1 0
c p weight 329 -1 0
c p weight -332 1 0
c p weight 332 -1 0
c p weight -335 1 0
c p weight 335 -1 0
c p weight -338 1 0
c p weight 338 -1 0
c p weight -341 1 0
c p weight 341 -1 0
c p weight -344 1 0
c p weight 344 -1 0
c p weight -347 1 0
c p weight 347 -1 0
c p weight -350 1 0
c p weight 350 -1 0
c p weight -353 1 0
c p weight 353 -1 0
c p weight -356 1 0
c p weight 356 -1 0
c p weight -359 1 0
c p weight 359 -1 0
c p weight -362 1 0
c p weight 362 -1 0
c p weight -365 1 0
c p weight 365 -1 0
c p weight -368 1 0
c p weight 368 -1 0
c p weight -371 1 0
c p weight 371 -1 0
c p weight -374 1 0
c p weight 374 -1 0
c p weight -377 1 0
c p weight 377 -1 0
c p weight -380 1 0
c p weight 380 -1 0
c p weight -383 1 0
c p weight 383 -1 0
c p weight -386 1 0
c p weight 386 -1 0
c p weight -389 1 0
c p weight 389 -1 0
c p weight -392 1 0
c p weight 392 -1 0
c p weight -395 1 0
c p weight 395 -1 0
c p weight -398 1 0
c p weight 398 -1 0
c p weight -401 1 0
c p weight 401 -1 0
c p weight -404 1 0
c p weight 404 -1 0
c p weight -407 1 0
c p weight 407 -1 0
c p weight -410 1 0
c p weight 410 -1 0
c p weight -413 1 0
c p weight 413 -1 0
c p weight -416 1 0
c p weight 416 -1 0
c p weight -419 1 0
c p weight 419 -1 0
c p weight -422 1 0
c p weight 422 -1 0
c p weight -425 1 0
c p weight 425 -1 0
c p weight -428 1 0
c p weight 428 -1 0
c p weight -431 1 0
c p weight 431 -1 0
c p weight -434 1 0
c p weight 434 -1 0
c p weight -437 1 0
c p weight 437 -1 0
c p weight -440 1 0
c p weight 440 -1 0
c p weight -443 1 0
c p weight 443 -1 0
c p weight -446 1 0
c p weight 446 -1 0
c p weight -449 1 0
c p weight 449 -1 0
c p weight -452 1 0
c p weight 452 -1 0
c p weight -455 1 0
c p weight 455 -1 0
c p weight -458 1 0
c p weight 458 -1 0
c p weight -461 1 0
c p weight 461 -1 0
c p weight -464 1 0
c p weight 464 -1 0
c p weight -467 1 0
c p weight 467 -1 0
c p weight -470 1 0
c p weight 470 -1 0
c p weight -473 1 0
c p weight 473 -1 0
c p weight -476 1 0
c p weight 476 -1 0
c p weight -479 1 0
c p weight 479 -1 0
c p weight -482 1 0
c p weight 482 -1 0
c p weight -485 1 0
c p weight 485 -1 0
c p weight -488 1 0
c p weight 488 -1 0
c p weight -491 1 0
c p weight 491 -1 0
c p weight -494 1 0
c p weight 494 -1 0
c p weight -497 1 0
c p weight 497 -1 0
c p weight -500 1 0
c p weight 500 -1 0
c p weight -503 1 0
c p weight 503 -1 0
c p weight -506 1 0
c p weight 506 -1 0
c p weight -509 1 0
c p weight 509 -1 0
c p weight -512 1 0
c p weight 512 -1 0
c p weight -515 1 0
c p weight 515 -1 0
c p weight -518 1 0
c p weight 518 -1 0
c p weight -521 1 0
c p weight 521 -1 0
c p weight -524 1 0
c p weight 524 -1 0
c p weight -527 1 0
c p weight 527 -1 0
c p weight -530 1 0
c p weight 530 -1 0
c p weight -533 1 0
c p weight 533 -1 0
c p weight -536 1 0
c p weight 536 -1 0
c p weight -539 1 0
c p weight 539 -1 0
c p weight -542 1 0
c p weight 542 -1 0
c p weight -545 1 0
c p weight 545 -1 0
c p weight -548 1 0
c p weight 548 -1 0
c p weight -551 1 0
c p weight 551 -1 0
c p weight -554 1 0
c p weight 554 -1 0
c p weight -557 1 0
c p weight 557 -1 0
c p weight -560 1 0
c p weight 560 -1 0
c p weight -563 1 0
c p weight 563 -1 0
c p weight -566 1 0
c p weight 566 -1 0
c p weight -569 1 0
c p weight 569 -1 0
c p weight -572 1 0
c p weight 572 -1 0
c p weight -575 1 0
c p weight 575 -1 0
c p weight -578 1 0
c p weight 578 -1 0
c p weight 581 0.5 0
c p weight -581 1 0
581 0
-229 0
-227 0
-225 0
-223 0
-221 0
-219 0
-217 0
-215 0
-213 0
-211 0
-209 0
-207 0
-205 0
-203 0
-201 0
-199 0
-197 0
-195 0
-193 0
-191 0
-189 0
-187 0
-185 0
-183 0
-181 0
-179 0
-177 0
-175 0
-173 0
-171 0
-169 0
-167 0
-165 0
-163 0
-161 0
-159 0
-157 0
-155 0
-153 0
-151 0
-149 0
-147 0
-145 0
-143 0
-141 0
-139 0
-137 0
-135 0
-133 0
-131 0
-129 0
-127 0
-125 0
-123 0
-121 0
-119 0
-117 0
-115 0
-113 0
-111 0
-109 0
-107 0
-105 0
-103 0
-101 0
-99 0
-97 0
-95 0
-93 0
-91 0
-89 0
-87 0
-85 0
-83 0
-81 0
-79 0
-77 0
-75 0
-73 0
-71 0
-69 0
-67 0
-65 0
-63 0
-61 0
-59 0
-57 0
-55 0
-53 0
-51 0
-49 0
-47 0
-45 0
-43 0
-41 0
-39 0
-37 0
-35 0
-33 0
-31 0
-29 0
-27 0
-25 0
-23 0
-21 0
-19 0
-17 0
-15 0
-13 0
-11 0
-9 0
-7 0
-5 0
-3 0
-1 0
-231 229 0
-231 230 0
231 -229 -230 0
232 229 -230 0
232 -229 230 0
-232 229 230 0
-232 -229 -230 0
-233 234 0
-233 232 0
-233 -229 0
233 -234 229 -232 0
234 -229 232 0
-234 229 232 0
-235 232 0
234 -235 -229 0
-234 -235 229 0
234 235 229 -232 0
-234 235 -229 -232 0
-236 232 0
234 -236 229 0
-234 -236 -229 0
234 236 -229 -232 0
-234 236 229 -232 0
-237 234 0
-237 232 0
237 -234 -232 0
238 234 -232 0
238 -234 232 0
-238 234 232 0
-238 -234 -232 0
-239 234 0
-239 228 0
-239 227 -238 0
-239 -227 238 0
239 -234 227 238 -228 0
239 -234 -227 -238 -228 0
241 234 -227 0
241 -234 227 0
-241 234 227 0
-241 -234 -227 0
240 238 -228 0
240 -238 228 0
-240 238 228 0
-240 -238 -228 0
-242 241 0
-242 226 0
-242 225 -228 0
-242 -225 228 0
242 -241 225 228 -226 0
242 -241 -225 -228 -226 0
244 241 -225 0
244 -241 225 0
-244 241 225 0
-244 -241 -225 0
243 228 -226 0
243 -228 226 0
-243 228 226 0
-243 -228 -226 0
-245 244 0
-245 224 0
-245 223 -226 0
-245 -223 226 0
245 -244 223 226 -224 0
245 -244 -223 -226 -224 0
247 244 -223 0
247 -244 223 0
-247 244 223 0
-247 -244 -223 0
246 226 -224 0
246 -226 224 0
-246 226 224 0
-246 -226 -224 0
-248 247 0
-248 222 0
-248 221 -224 0
-248 -221 224 0
248 -247 221 224 -222 0
248 -247 -221 -224 -222 0
250 247 -221 0
250 -247 221 0
-250 247 221 0
-250 -247 -221 0
249 224 -222 0
249 -224 222 0
-249 224 222 0
-249 -224 -222 0
-251 250 0
-251 220 0
-251 219 -222 0
-251 -219 222 0
251 -250 219 222 -220 0
251 -250 -219 -222 -220 0
253 250 -219 0
253 -250 219 0
-253 250 219 0
-253 -250 -219 0
252 222 -220 0
252 -222 220 0
-252 222 220 0
-252 -222 -220 0
-254 253 0
-254 218 0
-254 217 -220 0
-254 -217 220 0
254 -253 217 220 -218 0
254 -253 -217 -220 -218 0
256 253 -217 0
256 -253 217 0
-256 253 217 0
-256 -253 -217 0
255 220 -218 0
255 -220 218 0
-255 220 218 0
-255 -220 -218 0
-257 256 0
-257 216 0
-257 215 -218 0
-257 -215 218 0
257 -256 215 218 -216 0
257 -256 -215 -218 -216 0
259 256 -215 0
259 -256 215 0
-259 256 215 0
-259 -256 -215 0
258 218 -216 0
258 -218 216 0
-258 218 216 0
-258 -218 -216 0
-260 259 0
-260 214 0
-260 213 -216 0
-260 -213 216 0
260 -259 213 216 -214 0
260 -259 -213 -216 -214 0
262 259 -213 0
262 -259 213 0
-262 259 213 0
-262 -259 -213 0
261 216 -214 0
261 -216 214 0
-261 216 214 0
-261 -216 -214 0
-263 262 0
-263 212 0
-263 211 -214 0
-263 -211 214 0
263 -262 211 214 -212 0
263 -262 -211 -214 -212 0
265 262 -211 0
265 -262 211 0
-265 262 211 0
-265 -262 -211 0
264 214 -212 0
264 -214 212 0
-264 214 212 0
-264 -214 -212 0
-266 265 0
-266 210 0
-266 209 -212 0
-266 -209 212 0
266 -265 209 212 -210 0
266 -265 -209 -212 -210 0
268 265 -209 0
268 -265 209 0
-268 265 209 0
-268 -265 -209 0
267 212 -210 0
267 -212 210 0
-267 212 210 0
-267 -212 -210 0
-269 268 0
-269 208 0
-269 207 -210 0
-269 -207 210 0
269 -268 207 210 -208 0
269 -268 -207 -210 -208 0
271 268 -207 0
271 -268 207 0
-271 268 207 0
-271 -268 -207 0
270 210 -208 0
270 -210 208 0
-270 210 208 0
-270 -210 -208 0
-272 271 0
-272 206 0
-272 205 -208 0
-272 -205 208 0
272 -271 205 208 -206 0
272 -271 -205 -208 -206 0
274 271 -205 0
274 -271 205 0
-274 271 205 0
-274 -271 -205 0
273 208 -206 0
273 -208 206 0
-273 208 206 0
-273 -208 -206 0
-275 274 0
-275 204 0
-275 203 -206 0
-275 -203 206 0
275 -274 203 206 -204 0
275 -274 -203 -206 -204 0
277 274 -203 0
277 -274 203 0
-277 274 203 0
-277 -274 -203 0
276 206 -204 0
276 -206 204 0
-276 206 204 0
-276 -206 -204 0
-278 277 0
-278 202 0
-278 201 -204 0
-278 -201 204 0
278 -277 201 204 -202 0
278 -277 -201 -204 -202 0
280 277 -201 0
280 -277 201 0
-280 277 201 0
-280 -277 -201 0
279 204 -202 0
279 -204 202 0
-279 204 202 0
-279 -204 -202 0
-281 280 0
-281 200 0
-281 199 -202 0
-281 -199 202 0
281 -280 199 202 -200 0
281 -280 -199 -202 -200 0
283 280 -199 0
283 -280 199 0
-283 280 199 0
-283 -280 -199 0
282 202 -200 0
282 -202 200 0
-282 202 200 0
-282 -202 -200 0
-284 283 0
-284 198 0
-284 197 -200 0
-284 -197 200 0
284 -283 197 200 -198 0
284 -283 -197 -200 -198 0
286 283 -197 0
286 -283 197 0
-286 283 197 0
-286 -283 -197 0
285 200 -198 0
285 -200 198 0
-285 200 198 0
-285 -200 -198 0
-287 286 0
-287 196 0
-287 195 -198 0
-287 -195 198 0
287 -286 195 198 -196 0
287 -286 -195 -198 -196 0
289 286 -195 0
289 -286 195 0
-289 286 195 0
-289 -286 -195 0
288 198 -196 0
288 -198 196 0
-288 198 196 0
-288 -198 -196 0
-290 289 0
-290 194 0
-290 193 -196 0
-290 -193 196 0
290 -289 193 196 -194 0
290 -289 -193 -196 -194 0
292 289 -193 0
292 -289 193 0
-292 289 193 0
-292 -289 -193 0
291 196 -194 0
291 -196 194 0
-291 196 194 0
-291 -196 -194 0
-293 292 0
-293 192 0
-293 191 -194 0
-293 -191 194 0
293 -292 191 194 -192 0
293 -292 -191 -194 -192 0
295 292 -191 0
295 -292 191 0
-295 292 191 0
-295 -292 -191 0
294 194 -192 0
294 -194 192 0
-294 194 192 0
-294 -194 -192 0
-296 295 0
-296 190 0
-296 189 -192 0
-296 -189 192 0
296 -295 189 192 -190 0
296 -295 -189 -192 -190 0
298 295 -189 0
298 -295 189 0
-298 295 189 0
-298 -295 -189 0
297 192 -190 0
297 -192 190 0
-297 192 190 0
-297 -192 -190 0
-299 298 0
-299 188 0
-299 187 -190 0
-299 -187 190 0
299 -298 187 190 -188 0
299 -298 -187 -190 -188 0
301 298 -187 0
301 -298 187 0
-301 298 187 0
-301 -298 -187 0
300 190 -188 0
300 -190 188 0
-300 190 188 0
-300 -190 -188 0
-302 301 0
-302 186 0
-302 185 -188 0
-302 -185 188 0
302 -301 185 188 -186 0
302 -301 -185 -188 -186 0
304 301 -185 0
304 -301 185 0
-304 301 185 0
-304 -301 -185 0
303 188 -186 0
303 -188 186 0
-303 188 186 0
-303 -188 -186 0
-305 304 0
-305 184 0
-305 183 -186 0
-305 -183 186 0
305 -304 183 186 -184 0
305 -304 -183 -186 -184 0
307 304 -183 0
307 -304 183 0
-307 304 183 0
-307 -304 -183 0
306 186 -184 0
306 -186 184 0
-306 186 184 0
-306 -186 -184 0
-308 307 0
-308 182 0
-308 181 -184 0
-308 -181 184 0
308 -307 181 184 -182 0
308 -307 -181 -184 -182 0
310 307 -181 0
310 -307 181 0
-310 307 181 0
-310 -307 -181 0
309 184 -182 0
309 -184 182 0
-309 184 182 0
-309 -184 -182 0
-311 310 0
-311 180 0
-311 179 -182 0
-311 -179 182 0
311 -310 179 182 -180 0
311 -310 -179 -182 -180 0
313 310 -179 0
313 -310 179 0
-313 310 179 0
-313 -310 -179 0
312 182 -180 0
312 -182 180 0
-312 182 180 0
-312 -182 -180 0
-314 313 0
-314 178 0
-314 177 -180 0
-314 -177 180 0
314 -313 177 180 -178 0
314 -313 -177 -180 -178 0
316 313 -177 0
316 -313 177 0
-316 313 177 0
-316 -313 -177 0
315 180 -178 0
315 -180 178 0
-315 180 178 0
-315 -180 -178 0
-317 316 0
-317 176 0
-317 175 -178 0
-317 -175 178 0
317 -316 175 178 -176 0
317 -316 -175 -178 -176 0
319 316 -175 0
319 -316 175 0
-319 316 175 0
-319 -316 -175 0
318 178 -176 0
318 -178 176 0
-318 178 176 0
-318 -178 -176 0
-320 319 0
-320 174 0
-320 173 -176 0
-320 -173 176 0
320 -319 173 176 -174 0
320 -319 -173 -176 -174 0
322 319 -173 0
322 -319 173 0
-322 319 173 0
-322 -319 -173 0
321 176 -174 0
321 -176 174 0
-321 176 174 0
-321 -176 -174 0
-323 322 0
-323 172 0
-323 171 -174 0
-323 -171 174 0
323 -322 171 174 -172 0
323 -322 -171 -174 -172 0
325 322 -171 0
325 -322 171 0
-325 322 171 0
-325 -322 -171 0
324 174 -172 0
324 -174 172 0
-324 174 172 0
-324 -174 -172 0
-326 325 0
-326 170 0
-326 169 -172 0
-326 -169 172 0
326 -325 169 172 -170 0
326 -325 -169 -172 -170 0
328 325 -169 0
328 -325 169 0
-328 325 169 0
-328 -325 -169 0
327 172 -170 0
327 -172 170 0
-327 172 170 0
-327 -172 -170 0
-329 328 0
-329 168 0
-329 167 -170 0
-329 -167 170 0
329 -328 167 170 -168 0
329 -328 -167 -170 -168 0
331 328 -167 0
331 -328 167 0
-331 328 167 0
-331 -328 -167 0
330 170 -168 0
330 -170 168 0
-330 170 168 0
-330 -170 -168 0
-332 331 0
-332 166 0
-332 165 -168 0
-332 -165 168 0
332 -331 165 168 -166 0
332 -331 -165 -168 -166 0
334 331 -165 0
334 -331 165 0
-334 331 165 0
-334 -331 -165 0
333 168 -166 0
333 -168 166 0
-333 168 166 0
-333 -168 -166 0
-335 334 0
-335 164 0
-335 163 -166 0
-335 -163 166 0
335 -334 163 166 -164 0
335 -334 -163 -166 -164 0
337 334 -163 0
337 -334 163 0
-337 334 163 0
-337 -334 -163 0
336 166 -164 0
336 -166 164 0
-336 166 164 0
-336 -166 -164 0
-338 337 0
-338 162 0
-338 161 -164 0
-338 -161 164 0
338 -337 161 164 -162 0
338 -337 -161 -164 -162 0
340 337 -161 0
340 -337 161 0
-340 337 161 0
-340 -337 -161 0
339 164 -162 0
339 -164 162 0
-339 164 162 0
-339 -164 -162 0
-341 340 0
-341 160 0
-341 159 -162 0
-341 -159 162 0
341 -340 159 162 -160 0
341 -340 -159 -162 -160 0
343 340 -159 0
343 -340 159 0
-343 340 159 0
-343 -340 -159 0
342 162 -160 0
342 -162 160 0
-342 162 160 0
-342 -162 -160 0
-344 343 0
-344 158 0
-344 157 -160 0
-344 -157 160 0
344 -343 157 160 -158 0
344 -343 -157 -160 -158 0
346 343 -157 0
346 -343 157 0
-346 343 157 0
-346 -343 -157 0
345 160 -158 0
345 -160 158 0
-345 160 158 0
-345 -160 -158 0
-347 346 0
-347 156 0
-347 155 -158 0
-347 -155 158 0
347 -346 155 158 -156 0
347 -346 -155 -158 -156 0
349 346 -155 0
349 -346 155 0
-349 346 155 0
-349 -346 -155 0
348 158 -156 0
348 -158 156 0
-348 158 156 0
-348 -158 -156 0
-350 349 0
-350 154 0
-350 153 -156 0
-350 -153 156 0
350 -349 153 156 -154 0
350 -349 -153 -156 -154 0
352 349 -153 0
352 -349 153 0
-352 349 153 0
-352 -349 -153 0
351 156 -154 0
351 -156 154 0
-351 156 154 0
-351 -156 -154 0
-353 352 0
-353 152 0
-353 151 -154 0
-353 -151 154 0
353 -352 151 154 -152 0
353 -352 -151 -154 -152 0
355 352 -151 0
355 -352 151 0
-355 352 151 0
-355 -352 -151 0
354 154 -152 0
354 -154 152 0
-354 154 152 0
-354 -154 -152 0
-356 355 0
-356 150 0
-356 149 -152 0
-356 -149 152 0
356 -355 149 152 -150 0
356 -355 -149 -152 -150 0
358 355 -149 0
358 -355 149 0
-358 355 149 0
-358 -355 -149 0
357 152 -150 0
357 -152 150 0
-357 152 150 0
-357 -152 -150 0
-359 358 0
-359 148 0
-359 147 -150 0
-359 -147 150 0
359 -358 147 150 -148 0
359 -358 -147 -150 -148 0
361 358 -147 0
361 -358 147 0
-361 358 147 0
-361 -358 -147 0
360 150 -148 0
360 -150 148 0
-360 150 148 0
-360 -150 -148 0
-362 361 0
-362 146 0
-362 145 -148 0
-362 -145 148 0
362 -361 145 148 -146 0
362 -361 -145 -148 -146 0
364 361 -145 0
364 -361 145 0
-364 361 145 0
-364 -361 -145 0
363 148 -146 0
363 -148 146 0
-363 148 146 0
-363 -148 -146 0
-365 364 0
-365 144 0
-365 143 -146 0
-365 -143 146 0
365 -364 143 146 -144 0
365 -364 -143 -146 -144 0
367 364 -143 0
367 -364 143 0
-367 364 143 0
-367 -364 -143 0
366 146 -144 0
366 -146 144 0
-366 146 144 0
-366 -146 -144 0
-368 367 0
-368 142 0
-368 141 -144 0
-368 -141 144 0
368 -367 141 144 -142 0
368 -367 -141 -144 -142 0
370 367 -141 0
370 -367 141 0
-370 367 141 0
-370 -367 -141 0
369 144 -142 0
369 -144 142 0
-369 144 142 0
-369 -144 -142 0
-371 370 0
-371 140 0
-371 139 -142 0
-371 -139 142 0
371 -370 139 142 -140 0
371 -370 -139 -142 -140 0
373 370 -139 0
373 -370 139 0
-373 370 139 0
-373 -370 -139 0
372 142 -140 0
372 -142 140 0
-372 142 140 0
-372 -142 -140 0
-374 373 0
-374 138 0
-374 137 -140 0
-374 -137 140 0
374 -373 137 140 -138 0
374 -373 -137 -140 -138 0
376 373 -137 0
376 -373 137 0
-376 373 137 0
-376 -373 -137 0
375 140 -138 0
375 -140 138 0
-375 140 138 0
-375 -140 -138 0
-377 376 0
-377 136 0
-377 135 -138 0
-377 -135 138 0
377 -376 135 138 -136 0
377 -376 -135 -138 -136 0
379 376 -135 0
379 -376 135 0
-379 376 135 0
-379 -376 -135 0
378 138 -136 0
378 -138 136 0
-378 138 136 0
-378 -138 -136 0
-380 379 0
-380 134 0
-380 133 -136 0
-380 -133 136 0
380 -379 133 136 -134 0
380 -379 -133 -136 -134 0
382 379 -133 0
382 -379 133 0
-382 379 133 0
-382 -379 -133 0
381 136 -134 0
381 -136 134 0
-381 136 134 0
-381 -136 -134 0
-383 382 0
-383 132 0
-383 131 -134 0
-383 -131 134 0
383 -382 131 134 -132 0
383 -382 -131 -134 -132 0
385 382 -131 0
385 -382 131 0
-385 382 131 0
-385 -382 -131 0
384 134 -132 0
384 -134 132 0
-384 134 132 0
-384 -134 -132 0
-386 385 0
-386 130 0
-386 129 -132 0
-386 -129 132 0
386 -385 129 132 -130 0
386 -385 -129 -132 -130 0
388 385 -129 0
388 -385 129 0
-388 385 129 0
-388 -385 -129 0
387 132 -130 0
387 -132 130 0
-387 132 130 0
-387 -132 -130 0
-389 388 0
-389 128 0
-389 127 -130 0
-389 -127 130 0
389 -388 127 130 -128 0
389 -388 -127 -130 -128 0
391 388 -127 0
391 -388 127 0
-391 388 127 0
-391 -388 -127 0
390 130 -128 0
390 -130 128 0
-390 130 128 0
-390 -130 -128 0
-392 391 0
-392 126 0
-392 125 -128 0
-392 -125 128 0
392 -391 125 128 -126 0
392 -391 -125 -128 -126 0
394 391 -125 0
394 -391 125 0
-394 391 125 0
-394 -391 -125 0
393 128 -126 0
393 -128 126 0
-393 128 126 0
-393 -128 -126 0
-395 394 0
-395 124 0
-395 123 -126 0
-395 -123 126 0
395 -394 123 126 -124 0
395 -394 -123 -126 -124 0
397 394 -123 0
397 -394 123 0
-397 394 123 0
-397 -394 -123 0
396 126 -124 0
396 -126 124 0
-396 126 124 0
-396 -126 -124 0
-398 397 0
-398 122 0
-398 121 -124 0
-398 -121 124 0
398 -397 121 124 -122 0
398 -397 -121 -124 -122 0
400 397 -121 0
400 -397 121 0
-400 397 121 0
-400 -397 -121 0
399 124 -122 0
399 -124 122 0
-399 124 122 0
-399 -124 -122 0
-401 400 0
-401 120 0
-401 119 -122 0
-401 -119 122 0
401 -400 119 122 -120 0
401 -400 -119 -122 -120 0
403 400 -119 0
403 -400 119 0
-403 400 119 0
-403 -400 -119 0
402 122 -120 0
402 -122 120 0
-402 122 120 0
-402 -122 -120 0
-404 403 0
-404 118 0
-404 117 -120 0
-404 -117 120 0
404 -403 117 120 -118 0
404 -403 -117 -120 -118 0
406 403 -117 0
406 -403 117 0
-406 403 117 0
-406 -403 -117 0
405 120 -118 0
405 -120 118 0
-405 120 118 0
-405 -120 -118 0
-407 406 0
-407 116 0
-407 115 -118 0
-407 -115 118 0
407 -406 115 118 -116 0
407 -406 -115 -118 -116 0
409 406 -115 0
409 -406 115 0
-409 406 115 0
-409 -406 -115 0
408 118 -116 0
408 -118 116 0
-408 118 116 0
-408 -118 -116 0
-410 409 0
-410 114 0
-410 113 -116 0
-410 -113 116 0
410 -409 113 116 -114 0
410 -409 -113 -116 -114 0
412 409 -113 0
412 -409 113 0
-412 409 113 0
-412 -409 -113 0
411 116 -114 0
411 -116 114 0
-411 116 114 0
-411 -116 -114 0
-413 412 0
-413 112 0
-413 111 -114 0
-413 -111 114 0
413 -412 111 114 -112 0
413 -412 -111 -114 -112 0
415 412 -111 0
415 -412 111 0
-415 412 111 0
-415 -412 -111 0
414 114 -112 0
414 -114 112 0
-414 114 112 0
-414 -114 -112 0
-416 415 0
-416 110 0
-416 109 -112 0
-416 -109 112 0
416 -415 109 112 -110 0
416 -415 -109 -112 -110 0
418 415 -109 0
418 -415 109 0
-418 415 109 0
-418 -415 -109 0
417 112 -110 0
417 -112 110 0
-417 112 110 0
-417 -112 -110 0
-419 418 0
-419 108 0
-419 107 -110 0
-419 -107 110 0
419 -418 107 110 -108 0
419 -418 -107 -110 -108 0
421 418 -107 0
421 -418 107 0
-421 418 107 0
-421 -418 -107 0
420 110 -108 0
420 -110 108 0
-420 110 108 0
-420 -110 -108 0
-422 421 0
-422 106 0
-422 105 -108 0
-422 -105 108 0
422 -421 105 108 -106 0
422 -421 -105 -108 -106 0
424 421 -105 0
424 -421 105 0
-424 421 105 0
-424 -421 -105 0
423 108 -106 0
423 -108 106 0
-423 108 106 0
-423 -108 -106 0
-425 424 0
-425 104 0
-425 103 -106 0
-425 -103 106 0
425 -424 103 106 -104 0
425 -424 -103 -106 -104 0
427 424 -103 0
427 -424 103 0
-427 424 103 0
-427 -424 -103 0
426 106 -104 0
426 -106 104 0
-426 106 104 0
-426 -106 -104 0
-428 427 0
-428 102 0
-428 101 -104 0
-428 -101 104 0
428 -427 101 104 -102 0
428 -427 -101 -104 -102 0
430 427 -101 0
430 -427 101 0
-430 427 101 0
-430 -427 -101 0
429 104 -102 0
429 -104 102 0
-429 104 102 0
-429 -104 -102 0
-431 430 0
-431 100 0
-431 99 -102 0
-431 -99 102 0
431 -430 99 102 -100 0
431 -430 -99 -102 -100 0
433 430 -99 0
433 -430 99 0
-433 430 99 0
-433 -430 -99 0
432 102 -100 0
432 -102 100 0
-432 102 100 0
-432 -102 -100 0
-434 433 0
-434 98 0
-434 97 -100 0
-434 -97 100 0
434 -433 97 100 -98 0
434 -433 -97 -100 -98 0
436 433 -97 0
436 -433 97 0
-436 433 97 0
-436 -433 -97 0
435 100 -98 0
435 -100 98 0
-435 100 98 0
-435 -100 -98 0
-437 436 0
-437 96 0
-437 95 -98 0
-437 -95 98 0
437 -436 95 98 -96 0
437 -436 -95 -98 -96 0
439 436 -95 0
439 -436 95 0
-439 436 95 0
-439 -436 -95 0
438 98 -96 0
438 -98 96 0
-438 98 96 0
-438 -98 -96 0
-440 439 0
-440 94 0
-440 93 -96 0
-440 -93 96 0
440 -439 93 96 -94 0
440 -439 -93 -96 -94 0
442 439 -93 0
442 -439 93 0
-442 439 93 0
-442 -439 -93 0
441 96 -94 0
441 -96 94 0
-441 96 94 0
-441 -96 -94 0
-443 442 0
-443 92 0
-443 91 -94 0
-443 -91 94 0
443 -442 91 94 -92 0
443 -442 -91 -94 -92 0
445 442 -91 0
445 -442 91 0
-445 442 91 0
-445 -442 -91 0
444 94 -92 0
444 -94 92 0
-444 94 92 0
-444 -94 -92 0
-446 445 0
-446 90 0
-446 89 -92 0
-446 -89 92 0
446 -445 89 92 -90 0
446 -445 -89 -92 -90 0
448 445 -89 0
448 -445 89 0
-448 445 89 0
-448 -445 -89 0
447 92 -90 0
447 -92 90 0
-447 92 90 0
-447 -92 -90 0
-449 448 0
-449 88 0
-449 87 -90 0
-449 -87 90 0
449 -448 87 90 -88 0
449 -448 -87 -90 -88 0
451 448 -87 0
451 -448 87 0
-451 448 87 0
-451 -448 -87 0
450 90 -88 0
450 -90 88 0
-450 90 88 0
-450 -90 -88 0
-452 451 0
-452 86 0
-452 85 -88 0
-452 -85 88 0
452 -451 85 88 -86 0
452 -451 -85 -88 -86 0
454 451 -85 0
454 -451 85 0
-454 451 85 0
-454 -451 -85 0
453 88 -86 0
453 -88 86 0
-453 88 86 0
-453 -88 -86 0
-455 454 0
-455 84 0
-455 83 -86 0
-455 -83 86 0
455 -454 83 86 -84 0
455 -454 -83 -86 -84 0
457 454 -83 0
457 -454 83 0
-457 454 83 0
-457 -454 -83 0
456 86 -84 0
456 -86 84 0
-456 86 84 0
-456 -86 -84 0
-458 457 0
-458 82 0
-458 81 -84 0
-458 -81 84 0
458 -457 81 84 -82 0
458 -457 -81 -84 -82 0
460 457 -81 0
460 -457 81 0
-460 457 81 0
-460 -457 -81 0
459 84 -82 0
459 -84 82 0
-459 84 82 0
-459 -84 -82 0
-461 460 0
-461 80 0
-461 79 -82 0
-461 -79 82 0
461 -460 79 82 -80 0
461 -460 -79 -82 -80 0
463 460 -79 0
463 -460 79 0
-463 460 79 0
-463 -460 -79 0
462 82 -80 0
462 -82 80 0
-462 82 80 0
-462 -82 -80 0
-464 463 0
-464 78 0
-464 77 -80 0
-464 -77 80 0
464 -463 77 80 -78 0
464 -463 -77 -80 -78 0
466 463 -77 0
466 -463 77 0
-466 463 77 0
-466 -463 -77 0
465 80 -78 0
465 -80 78 0
-465 80 78 0
-465 -80 -78 0
-467 466 0
-467 76 0
-467 75 -78 0
-467 -75 78 0
467 -466 75 78 -76 0
467 -466 -75 -78 -76 0
469 466 -75 0
469 -466 75 0
-469 466 75 0
-469 -466 -75 0
468 78 -76 0
468 -78 76 0
-468 78 76 0
-468 -78 -76 0
-470 469 0
-470 74 0
-470 73 -76 0
-470 -73 76 0
470 -469 73 76 -74 0
470 -469 -73 -76 -74 0
472 469 -73 0
472 -469 73 0
-472 469 73 0
-472 -469 -73 0
471 76 -74 0
471 -76 74 0
-471 76 74 0
-471 -76 -74 0
-473 472 0
-473 72 0
-473 71 -74 0
-473 -71 74 0
473 -472 71 74 -72 0
473 -472 -71 -74 -72 0
475 472 -71 0
475 -472 71 0
-475 472 71 0
-475 -472 -71 0
474 74 -72 0
474 -74 72 0
-474 74 72 0
-474 -74 -72 0
-476 475 0
-476 70 0
-476 69 -72 0
-476 -69 72 0
476 -475 69 72 -70 0
476 -475 -69 -72 -70 0
478 475 -69 0
478 -475 69 0
-478 475 69 0
-478 -475 -69 0
477 72 -70 0
477 -72 70 0
-477 72 70 0
-477 -72 -70 0
-479 478 0
-479 68 0
-479 67 -70 0
-479 -67 70 0
479 -478 67 70 -68 0
479 -478 -67 -70 -68 0
481 478 -67 0
481 -478 67 0
-481 478 67 0
-481 -478 -67 0
480 70 -68 0
480 -70 68 0
-480 70 68 0
-480 -70 -68 0
-482 481 0
-482 66 0
-482 65 -68 0
-482 -65 68 0
482 -481 65 68 -66 0
482 -481 -65 -68 -66 0
484 481 -65 0
484 -481 65 0
-484 481 65 0
-484 -481 -65 0
483 68 -66 0
483 -68 66 0
-483 68 66 0
-483 -68 -66 0
-485 484 0
-485 64 0
-485 63 -66 0
-485 -63 66 0
485 -484 63 66 -64 0
485 -484 -63 -66 -64 0
487 484 -63 0
487 -484 63 0
-487 484 63 0
-487 -484 -63 0
486 66 -64 0
486 -66 64 0
-486 66 64 0
-486 -66 -64 0
-488 487 0
-488 62 0
-488 61 -64 0
-488 -61 64 0
488 -487 61 64 -62 0
488 -487 -61 -64 -62 0
490 487 -61 0
490 -487 61 0
-490 487 61 0
-490 -487 -61 0
489 64 -62 0
489 -64 62 0
-489 64 62 0
-489 -64 -62 0
-491 490 0
-491 60 0
-491 59 -62 0
-491 -59 62 0
491 -490 59 62 -60 0
491 -490 -59 -62 -60 0
493 490 -59 0
493 -490 59 0
-493 490 59 0
-493 -490 -59 0
492 62 -60 0
492 -62 60 0
-492 62 60 0
-492 -62 -60 0
-494 493 0
-494 58 0
-494 57 -60 0
-494 -57 60 0
494 -493 57 60 -58 0
494 -493 -57 -60 -58 0
496 493 -57 0
496 -493 57 0
-496 493 57 0
-496 -493 -57 0
495 60 -58 0
495 -60 58 0
-495 60 58 0
-495 -60 -58 0
-497 496 0
-497 56 0
-497 55 -58 0
-497 -55 58 0
497 -496 55 58 -56 0
497 -496 -55 -58 -56 0
499 496 -55 0
499 -496 55 0
-499 496 55 0
-499 -496 -55 0
498 58 -56 0
498 -58 56 0
-498 58 56 0
-498 -58 -56 0
-500 499 0
-500 54 0
-500 53 -56 0
-500 -53 56 0
500 -499 53 56 -54 0
500 -499 -53 -56 -54 0
502 499 -53 0
502 -499 53 0
-502 499 53 0
-502 -499 -53 0
501 56 -54 0
501 -56 54 0
-501 56 54 0
-501 -56 -54 0
-503 502 0
-503 52 0
-503 51 -54 0
-503 -51 54 0
503 -502 51 54 -52 0
503 -502 -51 -54 -52 0
505 502 -51 0
505 -502 51 0
-505 502 51 0
-505 -502 -51 0
504 54 -52 0
504 -54 52 0
-504 54 52 0
-504 -54 -52 0
-506 505 0
-506 50 0
-506 49 -52 0
-506 -49 52 0
506 -505 49 52 -50 0
506 -505 -49 -52 -50 0
508 505 -49 0
508 -505 49 0
-508 505 49 0
-508 -505 -49 0
507 52 -50 0
507 -52 50 0
-507 52 50 0
-507 -52 -50 0
-509 508 0
-509 48 0
-509 47 -50 0
-509 -47 50 0
509 -508 47 50 -48 0
509 -508 -47 -50 -48 0
511 508 -47 0
511 -508 47 0
-511 508 47 0
-511 -508 -47 0
510 50 -48 0
510 -50 48 0
-510 50 48 0
-510 -50 -48 0
-512 511 0
-512 46 0
-512 45 -48 0
-512 -45 48 0
512 -511 45 48 -46 0
512 -511 -45 -48 -46 0
514 511 -45 0
514 -511 45 0
-514 511 45 0
-514 -511 -45 0
513 48 -46 0
513 -48 46 0
-513 48 46 0
-513 -48 -46 0
-515 514 0
-515 44 0
-515 43 -46 0
-515 -43 46 0
515 -514 43 46 -44 0
515 -514 -43 -46 -44 0
517 514 -43 0
517 -514 43 0
-517 514 43 0
-517 -514 -43 0
516 46 -44 0
516 -46 44 0
-516 46 44 0
-516 -46 -44 0
-518 517 0
-518 42 0
-518 41 -44 0
-518 -41 44 0
518 -517 41 44 -42 0
518 -517 -41 -44 -42 0
520 517 -41 0
520 -517 41 0
-520 517 41 0
-520 -517 -41 0
519 44 -42 0
519 -44 42 0
-519 44 42 0
-519 -44 -42 0
-521 520 0
-521 40 0
-521 39 -42 0
-521 -39 42 0
521 -520 39 42 -40 0
521 -520 -39 -42 -40 0
523 520 -39 0
523 -520 39 0
-523 520 39 0
-523 -520 -39 0
522 42 -40 0
522 -42 40 0
-522 42 40 0
-522 -42 -40 0
-524 523 0
-524 38 0
-524 37 -40 0
-524 -37 40 0
524 -523 37 40 -38 0
524 -523 -37 -40 -38 0
526 523 -37 0
526 -523 37 0
-526 523 37 0
-526 -523 -37 0
525 40 -38 0
525 -40 38 0
-525 40 38 0
-525 -40 -38 0
-527 526 0
-527 36 0
-527 35 -38 0
-527 -35 38 0
527 -526 35 38 -36 0
527 -526 -35 -38 -36 0
529 526 -35 0
529 -526 35 0
-529 526 35 0
-529 -526 -35 0
528 38 -36 0
528 -38 36 0
-528 38 36 0
-528 -38 -36 0
-530 529 0
-530 34 0
-530 33 -36 0
-530 -33 36 0
530 -529 33 36 -34 0
530 -529 -33 -36 -34 0
532 529 -33 0
532 -529 33 0
-532 529 33 0
-532 -529 -33 0
531 36 -34 0
531 -36 34 0
-531 36 34 0
-531 -36 -34 0
-533 532 0
-533 32 0
-533 31 -34 0
-533 -31 34 0
533 -532 31 34 -32 0
533 -532 -31 -34 -32 0
535 532 -31 0
535 -532 31 0
-535 532 31 0
-535 -532 -31 0
534 34 -32 0
534 -34 32 0
-534 34 32 0
-534 -34 -32 0
-536 535 0
-536 30 0
-536 29 -32 0
-536 -29 32 0
536 -535 29 32 -30 0
536 -535 -29 -32 -30 0
538 535 -29 0
538 -535 29 0
-538 535 29 0
-538 -535 -29 0
537 32 -30 0
537 -32 30 0
-537 32 30 0
-537 -32 -30 0
-539 538 0
-539 28 0
-539 27 -30 0
-539 -27 30 0
539 -538 27 30 -28 0
539 -538 -27 -30 -28 0
541 538 -27 0
541 -538 27 0
-541 538 27 0
-541 -538 -27 0
540 30 -28 0
540 -30 28 0
-540 30 28 0
-540 -30 -28 0
-542 541 0
-542 26 0
-542 25 -28 0
-542 -25 28 0
542 -541 25 28 -26 0
542 -541 -25 -28 -26 0
544 541 -25 0
544 -541 25 0
-544 541 25 0
-544 -541 -25 0
543 28 -26 0
543 -28 26 0
-543 28 26 0
-543 -28 -26 0
-545 544 0
-545 24 0
-545 23 -26 0
-545 -23 26 0
545 -544 23 26 -24 0
545 -544 -23 -26 -24 0
547 544 -23 0
547 -544 23 0
-547 544 23 0
-547 -544 -23 0
546 26 -24 0
546 -26 24 0
-546 26 24 0
-546 -26 -24 0
-548 547 0
-548 22 0
-548 21 -24 0
-548 -21 24 0
548 -547 21 24 -22 0
548 -547 -21 -24 -22 0
550 547 -21 0
550 -547 21 0
-550 547 21 0
-550 -547 -21 0
549 24 -22 0
549 -24 22 0
-549 24 22 0
-549 -24 -22 0
-551 550 0
-551 20 0
-551 19 -22 0
-551 -19 22 0
551 -550 19 22 -20 0
551 -550 -19 -22 -20 0
553 550 -19 0
553 -550 19 0
-553 550 19 0
-553 -550 -19 0
552 22 -20 0
552 -22 20 0
-552 22 20 0
-552 -22 -20 0
-554 553 0
-554 18 0
-554 17 -20 0
-554 -17 20 0
554 -553 17 20 -18 0
554 -553 -17 -20 -18 0
556 553 -17 0
556 -553 17 0
-556 553 17 0
-556 -553 -17 0
555 20 -18 0
555 -20 18 0
-555 20 18 0
-555 -20 -18 0
-557 556 0
-557 16 0
-557 15 -18 0
-557 -15 18 0
557 -556 15 18 -16 0
557 -556 -15 -18 -16 0
559 556 -15 0
559 -556 15 0
-559 556 15 0
-559 -556 -15 0
558 18 -16 0
558 -18 16 0
-558 18 16 0
-558 -18 -16 0
-560 559 0
-560 14 0
-560 13 -16 0
-560 -13 16 0
560 -559 13 16 -14 0
560 -559 -13 -16 -14 0
562 559 -13 0
562 -559 13 0
-562 559 13 0
-562 -559 -13 0
561 16 -14 0
561 -16 14 0
-561 16 14 0
-561 -16 -14 0
-563 562 0
-563 12 0
-563 11 -14 0
-563 -11 14 0
563 -562 11 14 -12 0
563 -562 -11 -14 -12 0
565 562 -11 0
565 -562 11 0
-565 562 11 0
-565 -562 -11 0
564 14 -12 0
564 -14 12 0
-564 14 12 0
-564 -14 -12 0
-566 565 0
-566 10 0
-566 9 -12 0
-566 -9 12 0
566 -565 9 12 -10 0
566 -565 -9 -12 -10 0
568 565 -9 0
568 -565 9 0
-568 565 9 0
-568 -565 -9 0
567 12 -10 0
567 -12 10 0
-567 12 10 0
-567 -12 -10 0
-569 568 0
-569 8 0
-569 7 -10 0
-569 -7 10 0
569 -568 7 10 -8 0
569 -568 -7 -10 -8 0
571 568 -7 0
571 -568 7 0
-571 568 7 0
-571 -568 -7 0
570 10 -8 0
570 -10 8 0
-570 10 8 0
-570 -10 -8 0
-572 571 0
-572 6 0
-572 5 -8 0
-572 -5 8 0
572 -571 5 8 -6 0
572 -571 -5 -8 -6 0
574 571 -5 0
574 -571 5 0
-574 571 5 0
-574 -571 -5 0
573 8 -6 0
573 -8 6 0
-573 8 6 0
-573 -8 -6 0
-575 574 0
-575 4 0
-575 3 -6 0
-575 -3 6 0
575 -574 3 6 -4 0
575 -574 -3 -6 -4 0
577 574 -3 0
577 -574 3 0
-577 574 3 0
-577 -574 -3 0
576 6 -4 0
576 -6 4 0
-576 6 4 0
-576 -6 -4 0
-578 577 0
-578 2 0
-578 1 -4 0
-578 -1 4 0
578 -577 1 4 -2 0
578 -577 -1 -4 -2 0
580 577 -1 0
580 -577 1 0
-580 577 1 0
-580 -577 -1 0
579 4 -2 0
579 -4 2 0
-579 4 2 0
-579 -4 -2 0
-580 0
-577 0
-579 0
-574 0
-576 0
-571 0
-573 0
-568 0
-570 0
-565 0
-567 0
-562 0
-564 0
-559 0
-561 0
-556 0
-558 0
-553 0
-555 0
-550 0
-552 0
-547 0
-549 0
-544 0
-546 0
-541 0
-543 0
-538 0
-540 0
-535 0
-537 0
-532 0
-534 0
-529 0
-531 0
-526 0
-528 0
-523 0
-525 0
-520 0
-522 0
-517 0
-519 0
-514 0
-516 0
-511 0
-513 0
-508 0
-510 0
-505 0
-507 0
-502 0
-504 0
-499 0
-501 0
-496 0
-498 0
-493 0
-495 0
-490 0
-492 0
-487 0
-489 0
-484 0
-486 0
-481 0
-483 0
-478 0
-480 0
-475 0
-477 0
-472 0
-474 0
-469 0
-471 0
-466 0
-468 0
-463 0
-465 0
-460 0
-462 0
-457 0
-459 0
-454 0
-456 0
-451 0
-453 0
-448 0
-450 0
-445 0
-447 0
-442 0
-444 0
-439 0
-441 0
-436 0
-438 0
-433 0
-435 0
-430 0
-432 0
-427 0
-429 0
-424 0
-426 0
-421 0
-423 0
-418 0
-420 0
-415 0
-417 0
-412 0
-414 0
-409 0
-411 0
-406 0
-408 0
-403 0
-405 0
-400 0
-402 0
-397 0
-399 0
-394 0
-396 0
-391 0
-393 0
-388 0
-390 0
-385 0
-387 0
-382 0
-384 0
-379 0
-381 0
-376 0
-378 0
-373 0
-375 0
-370 0
-372 0
-367 0
-369 0
-364 0
-366 0
-361 0
-363 0
-358 0
-360 0
-355 0
-357 0
-352 0
-354 0
-349 0
-351 0
-346 0
-348 0
-343 0
-345 0
-340 0
-342 0
-337 0
-339 0
-334 0
-336 0
-331 0
-333 0
-328 0
-330 0
-325 0
-327 0
-322 0
-324 0
-319 0
-321 0
-316 0
-318 0
-313 0
-315 0
-310 0
-312 0
-307 0
-309 0
-304 0
-306 0
-301 0
-303 0
-298 0
-300 0
-295 0
-297 0
-292 0
-294 0
-289 0
-291 0
-286 0
-288 0
-283 0
-285 0
-280 0
-282 0
-277 0
-279 0
-274 0
-276 0
-271 0
-273 0
-268 0
-270 0
-265 0
-267 0
-262 0
-264 0
-259 0
-261 0
-256 0
-258 0
-253 0
-255 0
-250 0
-252 0
-247 0
-249 0
-244 0
-246 0
-241 0
-243 0
-234 0
-240 0
